(set-logic ALL)
(set-option :fmf-bound true)
(set-option :produce-models true)
(declare-sort Object 0)

(declare-fun var55 (Bool) Bool)
(declare-fun var59 (Bool) Bool)
(declare-fun var67 (Bool) Bool)
(declare-fun var91 (Bool) Bool)
(declare-fun var34 (Bool) Bool)
(declare-fun var25 (Bool) Bool)
(declare-fun var84 (Bool) Bool)
(declare-fun var64 (Bool) Bool)
(declare-fun var83 (Bool) Bool)
(declare-fun var22 (Bool) Bool)
(declare-fun var2 (Bool) Bool)
(declare-fun var53 (Bool) Bool)
(declare-fun var11 (Bool) Bool)
(declare-fun var68 (Bool) Bool)
(declare-fun var94 (Bool) Bool)
(declare-fun var19 (Bool) Bool)
(declare-fun var48 (Bool) Bool)
(declare-fun var44 (Bool) Bool)
(declare-fun var43 (Bool) Bool)
(declare-fun var45 (Bool) Bool)
(declare-fun var27 (Bool) Bool)
(declare-fun var81 (Bool) Bool)
(declare-fun var26 (Bool) Bool)
(declare-fun var95 (Bool) Bool)
(declare-fun var47 (Bool) Bool)
(declare-fun var7 (Bool) Bool)
(declare-fun var92 (Bool) Bool)
(declare-fun var38 (Bool) Bool)
(declare-fun var62 (Bool) Bool)
(declare-fun var15 (Bool) Bool)
(declare-fun var99 (Bool) Bool)
(declare-fun var18 (Bool) Bool)
(declare-fun var46 (Bool) Bool)
(declare-fun var42 (Bool) Bool)
(declare-fun var33 (Bool) Bool)
(declare-fun var60 (Bool) Bool)
(declare-fun var20 (Bool) Bool)
(declare-fun var73 (Bool) Bool)
(declare-fun var69 (Bool) Bool)
(declare-fun var82 (Bool) Bool)
(declare-fun var51 (Bool) Bool)
(declare-fun var37 (Bool) Bool)
(declare-fun var1 (Bool) Bool)
(declare-fun var39 (Bool) Bool)
(declare-fun var40 (Bool) Bool)
(declare-fun var35 (Bool) Bool)
(declare-fun var31 (Bool) Bool)
(declare-fun var4 (Bool) Bool)
(declare-fun var80 (Bool) Bool)
(declare-fun var57 (Bool) Bool)
(declare-fun var72 (Bool) Bool)
(declare-fun var89 (Bool) Bool)
(declare-fun var85 (Bool) Bool)
(declare-fun var70 (Bool) Bool)
(declare-fun var65 (Bool) Bool)
(declare-fun var13 (Bool) Bool)
(declare-fun var63 (Bool) Bool)
(declare-fun var12 (Bool) Bool)
(declare-fun var74 (Bool) Bool)
(declare-fun var29 (Bool) Bool)
(declare-fun var100 (Bool) Bool)
(declare-fun var52 (Bool) Bool)
(declare-fun var30 (Bool) Bool)
(declare-fun var36 (Bool) Bool)
(declare-fun var41 (Bool) Bool)
(declare-fun var21 (Bool) Bool)
(declare-fun var75 (Bool) Bool)
(declare-fun var58 (Bool) Bool)
(declare-fun var9 (Bool) Bool)
(declare-fun var17 (Bool) Bool)
(declare-fun var98 (Bool) Bool)
(declare-fun var54 (Bool) Bool)
(declare-fun var77 (Bool) Bool)
(declare-fun var87 (Bool) Bool)
(declare-fun var3 (Bool) Bool)
(declare-fun var10 (Bool) Bool)
(declare-fun var16 (Bool) Bool)
(declare-fun var86 (Bool) Bool)
(declare-fun var56 (Bool) Bool)
(declare-fun var79 (Bool) Bool)
(declare-fun var23 (Bool) Bool)
(declare-fun var96 (Bool) Bool)
(declare-fun var88 (Bool) Bool)
(declare-fun var24 (Bool) Bool)
(declare-fun var71 (Bool) Bool)
(declare-fun var50 (Bool) Bool)
(declare-fun var6 (Bool) Bool)
(declare-fun var8 (Bool) Bool)
(declare-fun var61 (Bool) Bool)
(declare-fun var93 (Bool) Bool)
(declare-fun var76 (Bool) Bool)
(declare-fun var49 (Bool) Bool)
(declare-fun var14 (Bool) Bool)
(declare-fun var66 (Bool) Bool)
(declare-fun var32 (Bool) Bool)
(declare-fun var78 (Bool) Bool)
(declare-fun var90 (Bool) Bool)
(declare-fun var5 (Bool) Bool)
(declare-fun var97 (Bool) Bool)
(declare-fun var28 (Bool) Bool)
(declare-fun GTE (Bool Bool) Bool)
(define-fun implies ((p Bool)(q Bool)) Bool (or (not p) q))

(assert (forall ((x Bool)) (not(or (not(var55 x)) (var59 x)))))
(assert (forall ((x Bool)) (not(or (not(var67 x)) (var91 x)))))
(assert (forall ((x Bool)) (not(or (var34 x) (var25 x)))))
(assert (forall ((x Bool)) (not(or (not(var84 x)) (not(var64 x))))))
(assert (forall ((x Bool)) (not(or (var83 x) (not(var22 x))))))
(assert (forall ((x Bool)) (not(or (var2 x) (var53 x)))))
(assert (forall ((x Bool)) (not(or (not(var11 x)) (var68 x)))))
(assert (forall ((x Bool)) (not(or (not(var94 x)) (var19 x)))))
(assert (forall ((x Bool)) (not(or (var48 x) (not(var44 x))))))
(assert (forall ((x Bool)) (not(or (var43 x) (var45 x)))))
(assert (forall ((x Bool)) (not(or (var27 x) (var81 x)))))
(assert (forall ((x Bool)) (not(or (var26 x) (var95 x)))))
(assert (forall ((x Bool)) (not(or (not(var47 x)) (not(var7 x))))))
(assert (forall ((x Bool)) (not(or (not(var92 x)) (not(var38 x))))))
(assert (forall ((x Bool)) (not(or (var62 x) (var15 x)))))
(assert (forall ((x Bool)) (not(or (not(var99 x)) (var18 x)))))
(assert (forall ((x Bool)) (not(or (not(var46 x)) (not(var42 x))))))
(assert (forall ((x Bool)) (not(or (var33 x) (not(var60 x))))))
(assert (forall ((x Bool)) (not(or (not(var20 x)) (not(var73 x))))))
(assert (forall ((x Bool)) (not(or (not(var69 x)) (var82 x)))))
(assert (forall ((x Bool)) (not(or (var51 x) (var37 x)))))
(assert (forall ((x Bool)) (not(or (not(var1 x)) (not(var39 x))))))
(assert (forall ((x Bool)) (not(or (not(var40 x)) (not(var35 x))))))
(assert (forall ((x Bool)) (not(or (var31 x) (not(var4 x))))))
(assert (forall ((x Bool)) (not(or (not(var80 x)) (var57 x)))))
(assert (forall ((x Bool))  (exists ((x1 Bool)) (and(GTE x x1)  (implies (var72 x1) (var89 x))))))
(assert (forall ((x Bool))  (exists ((x1 Bool)) (and(GTE x x1)  (implies (not(var85 x1)) (var70 x))))))
(assert (forall ((x Bool))  (exists ((x1 Bool)) (and(GTE x x1)  (implies (var65 x1) (var13 x))))))
(assert (forall ((x Bool))  (exists ((x1 Bool)) (and(GTE x x1)  (implies (var63 x1) (var12 x))))))
(assert (forall ((x Bool))  (exists ((x1 Bool)) (and(GTE x x1)  (implies (not(var74 x1)) (var29 x))))))
(assert (forall ((x Bool))  (exists ((x1 Bool)) (and(GTE x x1)  (implies (var100 x1) (not(var52 x)))))))
(assert (forall ((x Bool))  (exists ((x1 Bool)) (and(GTE x x1)  (implies (var30 x1) (var36 x))))))
(assert (forall ((x Bool))  (exists ((x1 Bool)) (and(GTE x x1)  (implies (var41 x1) (not(var21 x)))))))
(assert (forall ((x Bool))  (exists ((x1 Bool)) (and(GTE x x1)  (implies (not(var75 x1)) (var58 x))))))
(assert (forall ((x Bool))  (exists ((x1 Bool)) (and(GTE x x1)  (implies (var9 x1) (var17 x))))))
(assert (forall ((x Bool))  (exists ((x1 Bool)) (and(GTE x x1)  (implies (var98 x1) (not(var54 x)))))))
(assert (forall ((x Bool))  (exists ((x1 Bool)) (and(GTE x x1)  (implies (not(var77 x1)) (not(var87 x)))))))
(assert (forall ((x Bool))  (exists ((x1 Bool)) (and(GTE x x1)  (implies (not(var3 x1)) (var10 x))))))
(assert (forall ((x Bool))  (exists ((x1 Bool)) (and(GTE x x1)  (implies (not(var16 x1)) (var86 x))))))
(assert (forall ((x Bool))  (exists ((x1 Bool)) (and(GTE x x1)  (implies (var56 x1) (not(var79 x)))))))
(assert (forall ((x Bool))  (exists ((x1 Bool)) (and(GTE x x1)  (implies (not(var23 x1)) (not(var96 x)))))))
(assert (forall ((x Bool))  (exists ((x1 Bool)) (and(GTE x x1)  (implies (var88 x1) (var24 x))))))
(assert (forall ((x Bool))  (exists ((x1 Bool)) (and(GTE x x1)  (implies (var71 x1) (var50 x))))))
(assert (forall ((x Bool))  (exists ((x1 Bool)) (and(GTE x x1)  (implies (not(var6 x1)) (var8 x))))))
(assert (forall ((x Bool))  (exists ((x1 Bool)) (and(GTE x x1)  (implies (var61 x1) (not(var93 x)))))))
(assert (forall ((x Bool))  (exists ((x1 Bool)) (and(GTE x x1)  (implies (var76 x1) (not(var49 x)))))))
(assert (forall ((x Bool))  (exists ((x1 Bool)) (and(GTE x x1)  (implies (var14 x1) (not(var66 x)))))))
(assert (forall ((x Bool))  (exists ((x1 Bool)) (and(GTE x x1)  (implies (not(var32 x1)) (not(var78 x)))))))
(assert (forall ((x Bool))  (exists ((x1 Bool)) (and(GTE x x1)  (implies (not(var90 x1)) (var5 x))))))
(assert (forall ((x Bool))  (exists ((x1 Bool)) (and(GTE x x1)  (implies (not(var97 x1)) (var28 x))))))
(check-sat)
(get-model)
